p cnf 88 608
-1 -2 0
-1 -3 0
-1 -4 0
-1 -5 0
-1 -6 0
-1 -7 0
-2 -3 0
-2 -4 0
-2 -5 0
-2 -6 0
-2 -7 0
-3 -4 0
-3 -5 0
-3 -6 0
-3 -7 0
-4 -5 0
-4 -6 0
-4 -7 0
-5 -6 0
-5 -7 0
-6 -7 0
1 2 3 4 5 6 7 0
-8 -9 0
-8 -10 0
-8 -11 0
-8 -12 0
-9 -10 0
-9 -11 0
-9 -12 0
-10 -11 0
-10 -12 0
-11 -12 0
8 9 10 11 12 0
-1 -13 0
-1 -14 0
-1 -15 0
-1 -16 0
-1 -17 0
-1 -18 0
-13 -14 0
-13 -15 0
-13 -16 0
-13 -17 0
-13 -18 0
-14 -15 0
-14 -16 0
-14 -17 0
-14 -18 0
-15 -16 0
-15 -17 0
-15 -18 0
-16 -17 0
-16 -18 0
-17 -18 0
1 13 14 15 16 17 18 0
-13 -19 0
-13 -20 0
-13 -21 0
-13 -22 0
-19 -20 0
-19 -21 0
-19 -22 0
-20 -21 0
-20 -22 0
-21 -22 0
13 19 20 21 22 0
-8 -14 0
-8 -19 0
-8 -23 0
-8 -24 0
-8 -25 0
-8 -26 0
-8 -27 0
-8 -28 0
-8 -29 0
-14 -19 0
-14 -23 0
-14 -24 0
-14 -25 0
-14 -26 0
-14 -27 0
-14 -28 0
-14 -29 0
-19 -23 0
-19 -24 0
-19 -25 0
-19 -26 0
-19 -27 0
-19 -28 0
-19 -29 0
-23 -24 0
-23 -25 0
-23 -26 0
-23 -27 0
-23 -28 0
-23 -29 0
-24 -25 0
-24 -26 0
-24 -27 0
-24 -28 0
-24 -29 0
-25 -26 0
-25 -27 0
-25 -28 0
-25 -29 0
-26 -27 0
-26 -28 0
-26 -29 0
-27 -28 0
-27 -29 0
-28 -29 0
8 14 19 23 24 25 26 27 28 29 0
-30 -31 0
-30 -32 0
-30 -33 0
-31 -32 0
-31 -33 0
-32 -33 0
30 31 32 33 0
-34 -35 0
-34 -36 0
-35 -36 0
34 35 36 0
-34 -37 0
-34 -38 0
-34 -39 0
-34 -40 0
-34 -41 0
-34 -42 0
-37 -38 0
-37 -39 0
-37 -40 0
-37 -41 0
-37 -42 0
-38 -39 0
-38 -40 0
-38 -41 0
-38 -42 0
-39 -40 0
-39 -41 0
-39 -42 0
-40 -41 0
-40 -42 0
-41 -42 0
34 37 38 39 40 41 42 0
-2 -30 0
-2 -43 0
-2 -44 0
-2 -45 0
-2 -46 0
-2 -47 0
-2 -48 0
-2 -49 0
-2 -50 0
-2 -51 0
-2 -52 0
-30 -43 0
-30 -44 0
-30 -45 0
-30 -46 0
-30 -47 0
-30 -48 0
-30 -49 0
-30 -50 0
-30 -51 0
-30 -52 0
-43 -44 0
-43 -45 0
-43 -46 0
-43 -47 0
-43 -48 0
-43 -49 0
-43 -50 0
-43 -51 0
-43 -52 0
-44 -45 0
-44 -46 0
-44 -47 0
-44 -48 0
-44 -49 0
-44 -50 0
-44 -51 0
-44 -52 0
-45 -46 0
-45 -47 0
-45 -48 0
-45 -49 0
-45 -50 0
-45 -51 0
-45 -52 0
-46 -47 0
-46 -48 0
-46 -49 0
-46 -50 0
-46 -51 0
-46 -52 0
-47 -48 0
-47 -49 0
-47 -50 0
-47 -51 0
-47 -52 0
-48 -49 0
-48 -50 0
-48 -51 0
-48 -52 0
-49 -50 0
-49 -51 0
-49 -52 0
-50 -51 0
-50 -52 0
-51 -52 0
2 30 43 44 45 46 47 48 49 50 51 52 0
-3 -15 0
-3 -23 0
-3 -35 0
-3 -37 0
-3 -53 0
-3 -54 0
-3 -55 0
-3 -56 0
-3 -57 0
-15 -23 0
-15 -35 0
-15 -37 0
-15 -53 0
-15 -54 0
-15 -55 0
-15 -56 0
-15 -57 0
-23 -35 0
-23 -37 0
-23 -53 0
-23 -54 0
-23 -55 0
-23 -56 0
-23 -57 0
-35 -37 0
-35 -53 0
-35 -54 0
-35 -55 0
-35 -56 0
-35 -57 0
-37 -53 0
-37 -54 0
-37 -55 0
-37 -56 0
-37 -57 0
-53 -54 0
-53 -55 0
-53 -56 0
-53 -57 0
-54 -55 0
-54 -56 0
-54 -57 0
-55 -56 0
-55 -57 0
-56 -57 0
3 15 23 35 37 53 54 55 56 57 0
-4 -24 0
-4 -58 0
-4 -59 0
-4 -60 0
-4 -61 0
-24 -58 0
-24 -59 0
-24 -60 0
-24 -61 0
-58 -59 0
-58 -60 0
-58 -61 0
-59 -60 0
-59 -61 0
-60 -61 0
4 24 58 59 60 61 0
-5 -9 0
-5 -31 0
-5 -38 0
-5 -43 0
-5 -62 0
-5 -63 0
-5 -64 0
-9 -31 0
-9 -38 0
-9 -43 0
-9 -62 0
-9 -63 0
-9 -64 0
-31 -38 0
-31 -43 0
-31 -62 0
-31 -63 0
-31 -64 0
-38 -43 0
-38 -62 0
-38 -63 0
-38 -64 0
-43 -62 0
-43 -63 0
-43 -64 0
-62 -63 0
-62 -64 0
-63 -64 0
5 9 31 38 43 62 63 64 0
-58 -62 0
-58 -65 0
-58 -66 0
-62 -65 0
-62 -66 0
-65 -66 0
58 62 65 66 0
-39 -65 0
-39 -67 0
-39 -68 0
-39 -69 0
-65 -67 0
-65 -68 0
-65 -69 0
-67 -68 0
-67 -69 0
-68 -69 0
39 65 67 68 69 0
-25 -44 0
-25 -53 0
-25 -70 0
-25 -71 0
-44 -53 0
-44 -70 0
-44 -71 0
-53 -70 0
-53 -71 0
-70 -71 0
25 44 53 70 71 0
-26 -45 0
-26 -54 0
-26 -72 0
-26 -73 0
-26 -74 0
-26 -75 0
-45 -54 0
-45 -72 0
-45 -73 0
-45 -74 0
-45 -75 0
-54 -72 0
-54 -73 0
-54 -74 0
-54 -75 0
-72 -73 0
-72 -74 0
-72 -75 0
-73 -74 0
-73 -75 0
-74 -75 0
26 45 54 72 73 74 75 0
-6 -20 0
-6 -46 0
-6 -55 0
-6 -67 0
-6 -76 0
-20 -46 0
-20 -55 0
-20 -67 0
-20 -76 0
-46 -55 0
-46 -67 0
-46 -76 0
-55 -67 0
-55 -76 0
-67 -76 0
6 20 46 55 67 76 0
-10 -27 0
-10 -40 0
-10 -63 0
-10 -66 0
-10 -72 0
-10 -77 0
-10 -78 0
-27 -40 0
-27 -63 0
-27 -66 0
-27 -72 0
-27 -77 0
-27 -78 0
-40 -63 0
-40 -66 0
-40 -72 0
-40 -77 0
-40 -78 0
-63 -66 0
-63 -72 0
-63 -77 0
-63 -78 0
-66 -72 0
-66 -77 0
-66 -78 0
-72 -77 0
-72 -78 0
-77 -78 0
10 27 40 63 66 72 77 78 0
-11 -16 0
-11 -21 0
-11 -28 0
-11 -47 0
-11 -77 0
-11 -79 0
-11 -80 0
-11 -81 0
-16 -21 0
-16 -28 0
-16 -47 0
-16 -77 0
-16 -79 0
-16 -80 0
-16 -81 0
-21 -28 0
-21 -47 0
-21 -77 0
-21 -79 0
-21 -80 0
-21 -81 0
-28 -47 0
-28 -77 0
-28 -79 0
-28 -80 0
-28 -81 0
-47 -77 0
-47 -79 0
-47 -80 0
-47 -81 0
-77 -79 0
-77 -80 0
-77 -81 0
-79 -80 0
-79 -81 0
-80 -81 0
11 16 21 28 47 77 79 80 81 0
-22 -29 0
-22 -32 0
-22 -36 0
-22 -48 0
-22 -56 0
-22 -59 0
-22 -82 0
-22 -83 0
-22 -84 0
-22 -85 0
-29 -32 0
-29 -36 0
-29 -48 0
-29 -56 0
-29 -59 0
-29 -82 0
-29 -83 0
-29 -84 0
-29 -85 0
-32 -36 0
-32 -48 0
-32 -56 0
-32 -59 0
-32 -82 0
-32 -83 0
-32 -84 0
-32 -85 0
-36 -48 0
-36 -56 0
-36 -59 0
-36 -82 0
-36 -83 0
-36 -84 0
-36 -85 0
-48 -56 0
-48 -59 0
-48 -82 0
-48 -83 0
-48 -84 0
-48 -85 0
-56 -59 0
-56 -82 0
-56 -83 0
-56 -84 0
-56 -85 0
-59 -82 0
-59 -83 0
-59 -84 0
-59 -85 0
-82 -83 0
-82 -84 0
-82 -85 0
-83 -84 0
-83 -85 0
-84 -85 0
22 29 32 36 48 56 59 82 83 84 85 0
-33 -64 0
-33 -73 0
-33 -86 0
-64 -73 0
-64 -86 0
-73 -86 0
33 64 73 86 0
-7 -12 0
-7 -49 0
-7 -60 0
-7 -76 0
-7 -79 0
-7 -82 0
-7 -87 0
-12 -49 0
-12 -60 0
-12 -76 0
-12 -79 0
-12 -82 0
-12 -87 0
-49 -60 0
-49 -76 0
-49 -79 0
-49 -82 0
-49 -87 0
-60 -76 0
-60 -79 0
-60 -82 0
-60 -87 0
-76 -79 0
-76 -82 0
-76 -87 0
-79 -82 0
-79 -87 0
-82 -87 0
7 12 49 60 76 79 82 87 0
-17 -41 0
-17 -50 0
-17 -57 0
-17 -70 0
-17 -74 0
-17 -78 0
-17 -80 0
-17 -83 0
-17 -88 0
-41 -50 0
-41 -57 0
-41 -70 0
-41 -74 0
-41 -78 0
-41 -80 0
-41 -83 0
-41 -88 0
-50 -57 0
-50 -70 0
-50 -74 0
-50 -78 0
-50 -80 0
-50 -83 0
-50 -88 0
-57 -70 0
-57 -74 0
-57 -78 0
-57 -80 0
-57 -83 0
-57 -88 0
-70 -74 0
-70 -78 0
-70 -80 0
-70 -83 0
-70 -88 0
-74 -78 0
-74 -80 0
-74 -83 0
-74 -88 0
-78 -80 0
-78 -83 0
-78 -88 0
-80 -83 0
-80 -88 0
-83 -88 0
17 41 50 57 70 74 78 80 83 88 0
-18 -51 0
-18 -75 0
-18 -84 0
-18 -87 0
-51 -75 0
-51 -84 0
-51 -87 0
-75 -84 0
-75 -87 0
-84 -87 0
18 51 75 84 87 0
-42 -52 0
-42 -61 0
-42 -68 0
-42 -71 0
-42 -86 0
-52 -61 0
-52 -68 0
-52 -71 0
-52 -86 0
-61 -68 0
-61 -71 0
-61 -86 0
-68 -71 0
-68 -86 0
-71 -86 0
42 52 61 68 71 86 0
-69 -81 0
-69 -85 0
-69 -88 0
-81 -85 0
-81 -88 0
-85 -88 0
69 81 85 88 0
